c *********************************
c * Circuit generated by BenCGen
c *
c * Parity_244
c *
c * Ports with 1 gate(s): 1
c * Ports with 2 gate(s): 244
c * Total gates: 245
c *********************************
p cnf 489 977
1 247 0
-1 -247 0
1 -246 0
247 -246 0
-1 -247 246 0
1 2 -248 0
-1 2 248 0
1 -2 248 0
-1 -2 -248 0
3 4 -249 0
-3 4 249 0
3 -4 249 0
-3 -4 -249 0
5 6 -250 0
-5 6 250 0
5 -6 250 0
-5 -6 -250 0
7 8 -251 0
-7 8 251 0
7 -8 251 0
-7 -8 -251 0
9 10 -252 0
-9 10 252 0
9 -10 252 0
-9 -10 -252 0
11 12 -253 0
-11 12 253 0
11 -12 253 0
-11 -12 -253 0
13 14 -254 0
-13 14 254 0
13 -14 254 0
-13 -14 -254 0
15 16 -255 0
-15 16 255 0
15 -16 255 0
-15 -16 -255 0
17 18 -256 0
-17 18 256 0
17 -18 256 0
-17 -18 -256 0
19 20 -257 0
-19 20 257 0
19 -20 257 0
-19 -20 -257 0
21 22 -258 0
-21 22 258 0
21 -22 258 0
-21 -22 -258 0
23 24 -259 0
-23 24 259 0
23 -24 259 0
-23 -24 -259 0
25 26 -260 0
-25 26 260 0
25 -26 260 0
-25 -26 -260 0
27 28 -261 0
-27 28 261 0
27 -28 261 0
-27 -28 -261 0
29 30 -262 0
-29 30 262 0
29 -30 262 0
-29 -30 -262 0
31 32 -263 0
-31 32 263 0
31 -32 263 0
-31 -32 -263 0
33 34 -264 0
-33 34 264 0
33 -34 264 0
-33 -34 -264 0
35 36 -265 0
-35 36 265 0
35 -36 265 0
-35 -36 -265 0
37 38 -266 0
-37 38 266 0
37 -38 266 0
-37 -38 -266 0
39 40 -267 0
-39 40 267 0
39 -40 267 0
-39 -40 -267 0
41 42 -268 0
-41 42 268 0
41 -42 268 0
-41 -42 -268 0
43 44 -269 0
-43 44 269 0
43 -44 269 0
-43 -44 -269 0
45 46 -270 0
-45 46 270 0
45 -46 270 0
-45 -46 -270 0
47 48 -271 0
-47 48 271 0
47 -48 271 0
-47 -48 -271 0
49 50 -272 0
-49 50 272 0
49 -50 272 0
-49 -50 -272 0
51 52 -273 0
-51 52 273 0
51 -52 273 0
-51 -52 -273 0
53 54 -274 0
-53 54 274 0
53 -54 274 0
-53 -54 -274 0
55 56 -275 0
-55 56 275 0
55 -56 275 0
-55 -56 -275 0
57 58 -276 0
-57 58 276 0
57 -58 276 0
-57 -58 -276 0
59 60 -277 0
-59 60 277 0
59 -60 277 0
-59 -60 -277 0
61 62 -278 0
-61 62 278 0
61 -62 278 0
-61 -62 -278 0
63 64 -279 0
-63 64 279 0
63 -64 279 0
-63 -64 -279 0
65 66 -280 0
-65 66 280 0
65 -66 280 0
-65 -66 -280 0
67 68 -281 0
-67 68 281 0
67 -68 281 0
-67 -68 -281 0
69 70 -282 0
-69 70 282 0
69 -70 282 0
-69 -70 -282 0
71 72 -283 0
-71 72 283 0
71 -72 283 0
-71 -72 -283 0
73 74 -284 0
-73 74 284 0
73 -74 284 0
-73 -74 -284 0
75 76 -285 0
-75 76 285 0
75 -76 285 0
-75 -76 -285 0
77 78 -286 0
-77 78 286 0
77 -78 286 0
-77 -78 -286 0
79 80 -287 0
-79 80 287 0
79 -80 287 0
-79 -80 -287 0
81 82 -288 0
-81 82 288 0
81 -82 288 0
-81 -82 -288 0
83 84 -289 0
-83 84 289 0
83 -84 289 0
-83 -84 -289 0
85 86 -290 0
-85 86 290 0
85 -86 290 0
-85 -86 -290 0
87 88 -291 0
-87 88 291 0
87 -88 291 0
-87 -88 -291 0
89 90 -292 0
-89 90 292 0
89 -90 292 0
-89 -90 -292 0
91 92 -293 0
-91 92 293 0
91 -92 293 0
-91 -92 -293 0
93 94 -294 0
-93 94 294 0
93 -94 294 0
-93 -94 -294 0
95 96 -295 0
-95 96 295 0
95 -96 295 0
-95 -96 -295 0
97 98 -296 0
-97 98 296 0
97 -98 296 0
-97 -98 -296 0
99 100 -297 0
-99 100 297 0
99 -100 297 0
-99 -100 -297 0
101 102 -298 0
-101 102 298 0
101 -102 298 0
-101 -102 -298 0
103 104 -299 0
-103 104 299 0
103 -104 299 0
-103 -104 -299 0
105 106 -300 0
-105 106 300 0
105 -106 300 0
-105 -106 -300 0
107 108 -301 0
-107 108 301 0
107 -108 301 0
-107 -108 -301 0
109 110 -302 0
-109 110 302 0
109 -110 302 0
-109 -110 -302 0
111 112 -303 0
-111 112 303 0
111 -112 303 0
-111 -112 -303 0
113 114 -304 0
-113 114 304 0
113 -114 304 0
-113 -114 -304 0
115 116 -305 0
-115 116 305 0
115 -116 305 0
-115 -116 -305 0
117 118 -306 0
-117 118 306 0
117 -118 306 0
-117 -118 -306 0
119 120 -307 0
-119 120 307 0
119 -120 307 0
-119 -120 -307 0
121 122 -308 0
-121 122 308 0
121 -122 308 0
-121 -122 -308 0
123 124 -309 0
-123 124 309 0
123 -124 309 0
-123 -124 -309 0
125 126 -310 0
-125 126 310 0
125 -126 310 0
-125 -126 -310 0
127 128 -311 0
-127 128 311 0
127 -128 311 0
-127 -128 -311 0
129 130 -312 0
-129 130 312 0
129 -130 312 0
-129 -130 -312 0
131 132 -313 0
-131 132 313 0
131 -132 313 0
-131 -132 -313 0
133 134 -314 0
-133 134 314 0
133 -134 314 0
-133 -134 -314 0
135 136 -315 0
-135 136 315 0
135 -136 315 0
-135 -136 -315 0
137 138 -316 0
-137 138 316 0
137 -138 316 0
-137 -138 -316 0
139 140 -317 0
-139 140 317 0
139 -140 317 0
-139 -140 -317 0
141 142 -318 0
-141 142 318 0
141 -142 318 0
-141 -142 -318 0
143 144 -319 0
-143 144 319 0
143 -144 319 0
-143 -144 -319 0
145 146 -320 0
-145 146 320 0
145 -146 320 0
-145 -146 -320 0
147 148 -321 0
-147 148 321 0
147 -148 321 0
-147 -148 -321 0
149 150 -322 0
-149 150 322 0
149 -150 322 0
-149 -150 -322 0
151 152 -323 0
-151 152 323 0
151 -152 323 0
-151 -152 -323 0
153 154 -324 0
-153 154 324 0
153 -154 324 0
-153 -154 -324 0
155 156 -325 0
-155 156 325 0
155 -156 325 0
-155 -156 -325 0
157 158 -326 0
-157 158 326 0
157 -158 326 0
-157 -158 -326 0
159 160 -327 0
-159 160 327 0
159 -160 327 0
-159 -160 -327 0
161 162 -328 0
-161 162 328 0
161 -162 328 0
-161 -162 -328 0
163 164 -329 0
-163 164 329 0
163 -164 329 0
-163 -164 -329 0
165 166 -330 0
-165 166 330 0
165 -166 330 0
-165 -166 -330 0
167 168 -331 0
-167 168 331 0
167 -168 331 0
-167 -168 -331 0
169 170 -332 0
-169 170 332 0
169 -170 332 0
-169 -170 -332 0
171 172 -333 0
-171 172 333 0
171 -172 333 0
-171 -172 -333 0
173 174 -334 0
-173 174 334 0
173 -174 334 0
-173 -174 -334 0
175 176 -335 0
-175 176 335 0
175 -176 335 0
-175 -176 -335 0
177 178 -336 0
-177 178 336 0
177 -178 336 0
-177 -178 -336 0
179 180 -337 0
-179 180 337 0
179 -180 337 0
-179 -180 -337 0
181 182 -338 0
-181 182 338 0
181 -182 338 0
-181 -182 -338 0
183 184 -339 0
-183 184 339 0
183 -184 339 0
-183 -184 -339 0
185 186 -340 0
-185 186 340 0
185 -186 340 0
-185 -186 -340 0
187 188 -341 0
-187 188 341 0
187 -188 341 0
-187 -188 -341 0
189 190 -342 0
-189 190 342 0
189 -190 342 0
-189 -190 -342 0
191 192 -343 0
-191 192 343 0
191 -192 343 0
-191 -192 -343 0
193 194 -344 0
-193 194 344 0
193 -194 344 0
-193 -194 -344 0
195 196 -345 0
-195 196 345 0
195 -196 345 0
-195 -196 -345 0
197 198 -346 0
-197 198 346 0
197 -198 346 0
-197 -198 -346 0
199 200 -347 0
-199 200 347 0
199 -200 347 0
-199 -200 -347 0
201 202 -348 0
-201 202 348 0
201 -202 348 0
-201 -202 -348 0
203 204 -349 0
-203 204 349 0
203 -204 349 0
-203 -204 -349 0
205 206 -350 0
-205 206 350 0
205 -206 350 0
-205 -206 -350 0
207 208 -351 0
-207 208 351 0
207 -208 351 0
-207 -208 -351 0
209 210 -352 0
-209 210 352 0
209 -210 352 0
-209 -210 -352 0
211 212 -353 0
-211 212 353 0
211 -212 353 0
-211 -212 -353 0
213 214 -354 0
-213 214 354 0
213 -214 354 0
-213 -214 -354 0
215 216 -355 0
-215 216 355 0
215 -216 355 0
-215 -216 -355 0
217 218 -356 0
-217 218 356 0
217 -218 356 0
-217 -218 -356 0
219 220 -357 0
-219 220 357 0
219 -220 357 0
-219 -220 -357 0
221 222 -358 0
-221 222 358 0
221 -222 358 0
-221 -222 -358 0
223 224 -359 0
-223 224 359 0
223 -224 359 0
-223 -224 -359 0
225 226 -360 0
-225 226 360 0
225 -226 360 0
-225 -226 -360 0
227 228 -361 0
-227 228 361 0
227 -228 361 0
-227 -228 -361 0
229 230 -362 0
-229 230 362 0
229 -230 362 0
-229 -230 -362 0
231 232 -363 0
-231 232 363 0
231 -232 363 0
-231 -232 -363 0
233 234 -364 0
-233 234 364 0
233 -234 364 0
-233 -234 -364 0
235 236 -365 0
-235 236 365 0
235 -236 365 0
-235 -236 -365 0
237 238 -366 0
-237 238 366 0
237 -238 366 0
-237 -238 -366 0
239 240 -367 0
-239 240 367 0
239 -240 367 0
-239 -240 -367 0
241 242 -368 0
-241 242 368 0
241 -242 368 0
-241 -242 -368 0
243 244 -369 0
-243 244 369 0
243 -244 369 0
-243 -244 -369 0
248 249 -370 0
-248 249 370 0
248 -249 370 0
-248 -249 -370 0
250 251 -371 0
-250 251 371 0
250 -251 371 0
-250 -251 -371 0
252 253 -372 0
-252 253 372 0
252 -253 372 0
-252 -253 -372 0
254 255 -373 0
-254 255 373 0
254 -255 373 0
-254 -255 -373 0
256 257 -374 0
-256 257 374 0
256 -257 374 0
-256 -257 -374 0
258 259 -375 0
-258 259 375 0
258 -259 375 0
-258 -259 -375 0
260 261 -376 0
-260 261 376 0
260 -261 376 0
-260 -261 -376 0
262 263 -377 0
-262 263 377 0
262 -263 377 0
-262 -263 -377 0
264 265 -378 0
-264 265 378 0
264 -265 378 0
-264 -265 -378 0
266 267 -379 0
-266 267 379 0
266 -267 379 0
-266 -267 -379 0
268 269 -380 0
-268 269 380 0
268 -269 380 0
-268 -269 -380 0
270 271 -381 0
-270 271 381 0
270 -271 381 0
-270 -271 -381 0
272 273 -382 0
-272 273 382 0
272 -273 382 0
-272 -273 -382 0
274 275 -383 0
-274 275 383 0
274 -275 383 0
-274 -275 -383 0
276 277 -384 0
-276 277 384 0
276 -277 384 0
-276 -277 -384 0
278 279 -385 0
-278 279 385 0
278 -279 385 0
-278 -279 -385 0
280 281 -386 0
-280 281 386 0
280 -281 386 0
-280 -281 -386 0
282 283 -387 0
-282 283 387 0
282 -283 387 0
-282 -283 -387 0
284 285 -388 0
-284 285 388 0
284 -285 388 0
-284 -285 -388 0
286 287 -389 0
-286 287 389 0
286 -287 389 0
-286 -287 -389 0
288 289 -390 0
-288 289 390 0
288 -289 390 0
-288 -289 -390 0
290 291 -391 0
-290 291 391 0
290 -291 391 0
-290 -291 -391 0
292 293 -392 0
-292 293 392 0
292 -293 392 0
-292 -293 -392 0
294 295 -393 0
-294 295 393 0
294 -295 393 0
-294 -295 -393 0
296 297 -394 0
-296 297 394 0
296 -297 394 0
-296 -297 -394 0
298 299 -395 0
-298 299 395 0
298 -299 395 0
-298 -299 -395 0
300 301 -396 0
-300 301 396 0
300 -301 396 0
-300 -301 -396 0
302 303 -397 0
-302 303 397 0
302 -303 397 0
-302 -303 -397 0
304 305 -398 0
-304 305 398 0
304 -305 398 0
-304 -305 -398 0
306 307 -399 0
-306 307 399 0
306 -307 399 0
-306 -307 -399 0
308 309 -400 0
-308 309 400 0
308 -309 400 0
-308 -309 -400 0
310 311 -401 0
-310 311 401 0
310 -311 401 0
-310 -311 -401 0
312 313 -402 0
-312 313 402 0
312 -313 402 0
-312 -313 -402 0
314 315 -403 0
-314 315 403 0
314 -315 403 0
-314 -315 -403 0
316 317 -404 0
-316 317 404 0
316 -317 404 0
-316 -317 -404 0
318 319 -405 0
-318 319 405 0
318 -319 405 0
-318 -319 -405 0
320 321 -406 0
-320 321 406 0
320 -321 406 0
-320 -321 -406 0
322 323 -407 0
-322 323 407 0
322 -323 407 0
-322 -323 -407 0
324 325 -408 0
-324 325 408 0
324 -325 408 0
-324 -325 -408 0
326 327 -409 0
-326 327 409 0
326 -327 409 0
-326 -327 -409 0
328 329 -410 0
-328 329 410 0
328 -329 410 0
-328 -329 -410 0
330 331 -411 0
-330 331 411 0
330 -331 411 0
-330 -331 -411 0
332 333 -412 0
-332 333 412 0
332 -333 412 0
-332 -333 -412 0
334 335 -413 0
-334 335 413 0
334 -335 413 0
-334 -335 -413 0
336 337 -414 0
-336 337 414 0
336 -337 414 0
-336 -337 -414 0
338 339 -415 0
-338 339 415 0
338 -339 415 0
-338 -339 -415 0
340 341 -416 0
-340 341 416 0
340 -341 416 0
-340 -341 -416 0
342 343 -417 0
-342 343 417 0
342 -343 417 0
-342 -343 -417 0
344 345 -418 0
-344 345 418 0
344 -345 418 0
-344 -345 -418 0
346 347 -419 0
-346 347 419 0
346 -347 419 0
-346 -347 -419 0
348 349 -420 0
-348 349 420 0
348 -349 420 0
-348 -349 -420 0
350 351 -421 0
-350 351 421 0
350 -351 421 0
-350 -351 -421 0
352 353 -422 0
-352 353 422 0
352 -353 422 0
-352 -353 -422 0
354 355 -423 0
-354 355 423 0
354 -355 423 0
-354 -355 -423 0
356 357 -424 0
-356 357 424 0
356 -357 424 0
-356 -357 -424 0
358 359 -425 0
-358 359 425 0
358 -359 425 0
-358 -359 -425 0
360 361 -426 0
-360 361 426 0
360 -361 426 0
-360 -361 -426 0
362 363 -427 0
-362 363 427 0
362 -363 427 0
-362 -363 -427 0
364 365 -428 0
-364 365 428 0
364 -365 428 0
-364 -365 -428 0
366 367 -429 0
-366 367 429 0
366 -367 429 0
-366 -367 -429 0
368 369 -430 0
-368 369 430 0
368 -369 430 0
-368 -369 -430 0
370 371 -431 0
-370 371 431 0
370 -371 431 0
-370 -371 -431 0
372 373 -432 0
-372 373 432 0
372 -373 432 0
-372 -373 -432 0
374 375 -433 0
-374 375 433 0
374 -375 433 0
-374 -375 -433 0
376 377 -434 0
-376 377 434 0
376 -377 434 0
-376 -377 -434 0
378 379 -435 0
-378 379 435 0
378 -379 435 0
-378 -379 -435 0
380 381 -436 0
-380 381 436 0
380 -381 436 0
-380 -381 -436 0
382 383 -437 0
-382 383 437 0
382 -383 437 0
-382 -383 -437 0
384 385 -438 0
-384 385 438 0
384 -385 438 0
-384 -385 -438 0
386 387 -439 0
-386 387 439 0
386 -387 439 0
-386 -387 -439 0
388 389 -440 0
-388 389 440 0
388 -389 440 0
-388 -389 -440 0
390 391 -441 0
-390 391 441 0
390 -391 441 0
-390 -391 -441 0
392 393 -442 0
-392 393 442 0
392 -393 442 0
-392 -393 -442 0
394 395 -443 0
-394 395 443 0
394 -395 443 0
-394 -395 -443 0
396 397 -444 0
-396 397 444 0
396 -397 444 0
-396 -397 -444 0
398 399 -445 0
-398 399 445 0
398 -399 445 0
-398 -399 -445 0
400 401 -446 0
-400 401 446 0
400 -401 446 0
-400 -401 -446 0
402 403 -447 0
-402 403 447 0
402 -403 447 0
-402 -403 -447 0
404 405 -448 0
-404 405 448 0
404 -405 448 0
-404 -405 -448 0
406 407 -449 0
-406 407 449 0
406 -407 449 0
-406 -407 -449 0
408 409 -450 0
-408 409 450 0
408 -409 450 0
-408 -409 -450 0
410 411 -451 0
-410 411 451 0
410 -411 451 0
-410 -411 -451 0
412 413 -452 0
-412 413 452 0
412 -413 452 0
-412 -413 -452 0
414 415 -453 0
-414 415 453 0
414 -415 453 0
-414 -415 -453 0
416 417 -454 0
-416 417 454 0
416 -417 454 0
-416 -417 -454 0
418 419 -455 0
-418 419 455 0
418 -419 455 0
-418 -419 -455 0
420 421 -456 0
-420 421 456 0
420 -421 456 0
-420 -421 -456 0
422 423 -457 0
-422 423 457 0
422 -423 457 0
-422 -423 -457 0
424 425 -458 0
-424 425 458 0
424 -425 458 0
-424 -425 -458 0
426 427 -459 0
-426 427 459 0
426 -427 459 0
-426 -427 -459 0
428 429 -460 0
-428 429 460 0
428 -429 460 0
-428 -429 -460 0
431 432 -461 0
-431 432 461 0
431 -432 461 0
-431 -432 -461 0
433 434 -462 0
-433 434 462 0
433 -434 462 0
-433 -434 -462 0
435 436 -463 0
-435 436 463 0
435 -436 463 0
-435 -436 -463 0
437 438 -464 0
-437 438 464 0
437 -438 464 0
-437 -438 -464 0
439 440 -465 0
-439 440 465 0
439 -440 465 0
-439 -440 -465 0
441 442 -466 0
-441 442 466 0
441 -442 466 0
-441 -442 -466 0
443 444 -467 0
-443 444 467 0
443 -444 467 0
-443 -444 -467 0
445 446 -468 0
-445 446 468 0
445 -446 468 0
-445 -446 -468 0
447 448 -469 0
-447 448 469 0
447 -448 469 0
-447 -448 -469 0
449 450 -470 0
-449 450 470 0
449 -450 470 0
-449 -450 -470 0
451 452 -471 0
-451 452 471 0
451 -452 471 0
-451 -452 -471 0
453 454 -472 0
-453 454 472 0
453 -454 472 0
-453 -454 -472 0
455 456 -473 0
-455 456 473 0
455 -456 473 0
-455 -456 -473 0
457 458 -474 0
-457 458 474 0
457 -458 474 0
-457 -458 -474 0
459 460 -475 0
-459 460 475 0
459 -460 475 0
-459 -460 -475 0
461 462 -476 0
-461 462 476 0
461 -462 476 0
-461 -462 -476 0
463 464 -477 0
-463 464 477 0
463 -464 477 0
-463 -464 -477 0
465 466 -478 0
-465 466 478 0
465 -466 478 0
-465 -466 -478 0
467 468 -479 0
-467 468 479 0
467 -468 479 0
-467 -468 -479 0
469 470 -480 0
-469 470 480 0
469 -470 480 0
-469 -470 -480 0
471 472 -481 0
-471 472 481 0
471 -472 481 0
-471 -472 -481 0
473 474 -482 0
-473 474 482 0
473 -474 482 0
-473 -474 -482 0
475 430 -483 0
-475 430 483 0
475 -430 483 0
-475 -430 -483 0
476 477 -484 0
-476 477 484 0
476 -477 484 0
-476 -477 -484 0
478 479 -485 0
-478 479 485 0
478 -479 485 0
-478 -479 -485 0
480 481 -486 0
-480 481 486 0
480 -481 486 0
-480 -481 -486 0
482 483 -487 0
-482 483 487 0
482 -483 487 0
-482 -483 -487 0
484 485 -488 0
-484 485 488 0
484 -485 488 0
-484 -485 -488 0
486 487 -489 0
-486 487 489 0
486 -487 489 0
-486 -487 -489 0
488 489 -245 0
-488 489 245 0
488 -489 245 0
-488 -489 -245 0
